
Gurobi 8.1.0 (mac64, Python) logging started Sat Apr  3 14:49:29 2021

Academic license - for non-commercial use only

Gurobi 8.1.0 (mac64, Python) logging started Sat Apr  3 15:12:31 2021

Academic license - for non-commercial use only

Gurobi 8.1.0 (mac64, Python) logging started Sat Apr  3 15:21:58 2021

Academic license - for non-commercial use only

Gurobi 8.1.0 (mac64, Python) logging started Sat Apr  3 15:23:26 2021

Academic license - for non-commercial use only

Gurobi 8.1.0 (mac64, Python) logging started Sat Apr  3 15:24:51 2021

Academic license - for non-commercial use only

Gurobi 8.1.0 (mac64, Python) logging started Sat Apr  3 15:25:05 2021

Academic license - for non-commercial use only

Gurobi 8.1.0 (mac64, Python) logging started Sat Apr  3 15:26:23 2021

Academic license - for non-commercial use only

Gurobi 8.1.0 (mac64, Python) logging started Sat Apr  3 15:27:17 2021

Academic license - for non-commercial use only

Gurobi 8.1.0 (mac64, Python) logging started Sat Apr  3 15:28:21 2021

Academic license - for non-commercial use only

Gurobi 8.1.0 (mac64, Python) logging started Sat Apr  3 15:28:36 2021

Academic license - for non-commercial use only

Gurobi 8.1.0 (mac64, Python) logging started Sat Apr  3 15:29:24 2021

Academic license - for non-commercial use only

Gurobi 8.1.0 (mac64, Python) logging started Sat Apr  3 15:30:19 2021

Academic license - for non-commercial use only

Gurobi 8.1.0 (mac64, Python) logging started Sat Apr  3 15:31:13 2021

Academic license - for non-commercial use only

Gurobi 8.1.0 (mac64, Python) logging started Sat Apr  3 15:32:07 2021

Academic license - for non-commercial use only

Gurobi 8.1.0 (mac64, Python) logging started Sat Apr  3 15:33:00 2021

Academic license - for non-commercial use only

Gurobi 8.1.0 (mac64, Python) logging started Sat Apr  3 15:33:14 2021

Academic license - for non-commercial use only

Gurobi 8.1.0 (mac64, Python) logging started Sat Apr  3 15:37:19 2021

Academic license - for non-commercial use only

Gurobi 8.1.0 (mac64, Python) logging started Sat Apr  3 15:40:56 2021

Academic license - for non-commercial use only

Gurobi 8.1.0 (mac64, Python) logging started Sat Apr  3 15:44:36 2021

Academic license - for non-commercial use only

Gurobi 8.1.0 (mac64, Python) logging started Sat Apr  3 16:27:11 2021

Academic license - for non-commercial use only

Gurobi 8.1.0 (mac64, Python) logging started Sat Apr  3 16:28:02 2021

Academic license - for non-commercial use only

Gurobi 8.1.0 (mac64, Python) logging started Sat Apr  3 16:28:51 2021

Academic license - for non-commercial use only

Gurobi 8.1.0 (mac64, Python) logging started Sat Apr  3 16:29:41 2021

Academic license - for non-commercial use only

Gurobi 8.1.0 (mac64, Python) logging started Sat Apr  3 16:30:33 2021

Academic license - for non-commercial use only

Gurobi 8.1.0 (mac64, Python) logging started Sat Apr  3 16:30:47 2021

Academic license - for non-commercial use only

Gurobi 8.1.0 (mac64, Python) logging started Sat Apr  3 16:31:32 2021

Academic license - for non-commercial use only

Gurobi 8.1.0 (mac64, Python) logging started Sat Apr  3 16:32:22 2021

Academic license - for non-commercial use only

Gurobi 8.1.0 (mac64, Python) logging started Sat Apr  3 16:33:12 2021

Academic license - for non-commercial use only

Gurobi 8.1.0 (mac64, Python) logging started Sat Apr  3 16:34:03 2021

Academic license - for non-commercial use only

Gurobi 8.1.0 (mac64, Python) logging started Sat Apr  3 16:34:53 2021

Academic license - for non-commercial use only

Gurobi 8.1.0 (mac64, Python) logging started Sat Apr  3 16:35:07 2021

Academic license - for non-commercial use only

Gurobi 8.1.0 (mac64, Python) logging started Sat Apr  3 16:35:52 2021

Academic license - for non-commercial use only

Gurobi 8.1.0 (mac64, Python) logging started Sat Apr  3 16:36:41 2021

Academic license - for non-commercial use only

Gurobi 8.1.0 (mac64, Python) logging started Sat Apr  3 16:37:31 2021

Academic license - for non-commercial use only

Gurobi 8.1.0 (mac64, Python) logging started Sat Apr  3 16:38:22 2021

Academic license - for non-commercial use only

Gurobi 8.1.0 (mac64, Python) logging started Sat Apr  3 16:39:12 2021

Academic license - for non-commercial use only

Gurobi 8.1.0 (mac64, Python) logging started Sat Apr  3 16:39:26 2021

Academic license - for non-commercial use only

Gurobi 8.1.0 (mac64, Python) logging started Sat Apr  3 16:40:11 2021

Academic license - for non-commercial use only

Gurobi 8.1.0 (mac64, Python) logging started Sat Apr  3 16:41:01 2021

Academic license - for non-commercial use only

Gurobi 8.1.0 (mac64, Python) logging started Sat Apr  3 16:41:52 2021

Academic license - for non-commercial use only

Gurobi 8.1.0 (mac64, Python) logging started Sat Apr  3 16:42:43 2021

Academic license - for non-commercial use only

Gurobi 8.1.0 (mac64, Python) logging started Sat Apr  3 16:43:33 2021

Academic license - for non-commercial use only

Gurobi 8.1.0 (mac64, Python) logging started Sat Apr  3 16:43:47 2021

Academic license - for non-commercial use only

Gurobi 8.1.0 (mac64, Python) logging started Sat Apr  3 16:44:34 2021

Academic license - for non-commercial use only

Gurobi 8.1.0 (mac64, Python) logging started Sat Apr  3 16:45:24 2021

Academic license - for non-commercial use only

Gurobi 8.1.0 (mac64, Python) logging started Sat Apr  3 16:46:14 2021

Academic license - for non-commercial use only

Gurobi 8.1.0 (mac64, Python) logging started Sat Apr  3 16:47:03 2021

Academic license - for non-commercial use only

Gurobi 8.1.0 (mac64, Python) logging started Sat Apr  3 16:47:53 2021

Academic license - for non-commercial use only

Gurobi 8.1.0 (mac64, Python) logging started Sat Apr  3 16:48:07 2021

Academic license - for non-commercial use only

Gurobi 8.1.0 (mac64, Python) logging started Sat Apr  3 16:48:52 2021

Academic license - for non-commercial use only

Gurobi 8.1.0 (mac64, Python) logging started Sat Apr  3 16:49:41 2021

Academic license - for non-commercial use only

Gurobi 8.1.0 (mac64, Python) logging started Sat Apr  3 16:50:31 2021

Academic license - for non-commercial use only

Gurobi 8.1.0 (mac64, Python) logging started Sat Apr  3 16:51:21 2021

Academic license - for non-commercial use only

Gurobi 8.1.0 (mac64, Python) logging started Sat Apr  3 16:52:10 2021

Academic license - for non-commercial use only

Gurobi 8.1.0 (mac64, Python) logging started Sat Apr  3 16:52:24 2021

Academic license - for non-commercial use only

Gurobi 8.1.0 (mac64, Python) logging started Sat Apr  3 16:54:37 2021

Academic license - for non-commercial use only

Gurobi 8.1.0 (mac64, Python) logging started Sat Apr  3 17:01:26 2021

Academic license - for non-commercial use only

Gurobi 8.1.0 (mac64, Python) logging started Sat Apr  3 17:06:53 2021

Academic license - for non-commercial use only

Gurobi 8.1.0 (mac64, Python) logging started Sat Apr  3 17:14:04 2021

Academic license - for non-commercial use only

Gurobi 8.1.0 (mac64, Python) logging started Sat Apr  3 17:19:35 2021

Academic license - for non-commercial use only

Gurobi 8.1.0 (mac64, Python) logging started Sat Apr  3 17:23:24 2021

Academic license - for non-commercial use only

Gurobi 8.1.0 (mac64, Python) logging started Sat Apr  3 17:27:29 2021

Academic license - for non-commercial use only

Gurobi 8.1.0 (mac64, Python) logging started Sat Apr  3 17:31:13 2021

Academic license - for non-commercial use only

Gurobi 8.1.0 (mac64, Python) logging started Sat Apr  3 17:35:02 2021

Academic license - for non-commercial use only

Gurobi 8.1.0 (mac64, Python) logging started Sat Apr  3 17:38:50 2021

Academic license - for non-commercial use only

Gurobi 8.1.0 (mac64, Python) logging started Sat Apr  3 17:42:43 2021

Academic license - for non-commercial use only

Gurobi 8.1.0 (mac64, Python) logging started Sat Apr  3 17:47:27 2021

Academic license - for non-commercial use only

Gurobi 8.1.0 (mac64, Python) logging started Sat Apr  3 19:27:53 2021

Academic license - for non-commercial use only

Gurobi 8.1.0 (mac64, Python) logging started Sat Apr  3 19:36:07 2021

Academic license - for non-commercial use only

Gurobi 8.1.0 (mac64, Python) logging started Sat Apr  3 19:46:59 2021

Academic license - for non-commercial use only

Gurobi 8.1.0 (mac64, Python) logging started Sat Apr  3 19:47:50 2021

Academic license - for non-commercial use only

Gurobi 8.1.0 (mac64, Python) logging started Sat Apr  3 19:48:40 2021

Academic license - for non-commercial use only

Gurobi 8.1.0 (mac64, Python) logging started Sat Apr  3 19:49:32 2021

Academic license - for non-commercial use only

Gurobi 8.1.0 (mac64, Python) logging started Sat Apr  3 19:50:22 2021

Academic license - for non-commercial use only

Gurobi 8.1.0 (mac64, Python) logging started Sat Apr  3 19:50:36 2021

Academic license - for non-commercial use only

Gurobi 8.1.0 (mac64, Python) logging started Sat Apr  3 19:51:20 2021

Academic license - for non-commercial use only

Gurobi 8.1.0 (mac64, Python) logging started Sat Apr  3 19:52:10 2021

Academic license - for non-commercial use only

Gurobi 8.1.0 (mac64, Python) logging started Sat Apr  3 19:53:02 2021

Academic license - for non-commercial use only

Gurobi 8.1.0 (mac64, Python) logging started Sat Apr  3 19:53:53 2021

Academic license - for non-commercial use only

Gurobi 8.1.0 (mac64, Python) logging started Sat Apr  3 19:54:44 2021

Academic license - for non-commercial use only

Gurobi 8.1.0 (mac64, Python) logging started Sat Apr  3 19:54:57 2021

Academic license - for non-commercial use only

Gurobi 8.1.0 (mac64, Python) logging started Sat Apr  3 19:55:42 2021

Academic license - for non-commercial use only

Gurobi 8.1.0 (mac64, Python) logging started Sat Apr  3 19:56:33 2021

Academic license - for non-commercial use only

Gurobi 8.1.0 (mac64, Python) logging started Sat Apr  3 19:57:23 2021

Academic license - for non-commercial use only

Gurobi 8.1.0 (mac64, Python) logging started Sat Apr  3 19:58:12 2021

Academic license - for non-commercial use only

Gurobi 8.1.0 (mac64, Python) logging started Sat Apr  3 19:59:03 2021

Academic license - for non-commercial use only

Gurobi 8.1.0 (mac64, Python) logging started Sat Apr  3 19:59:17 2021

Academic license - for non-commercial use only

Gurobi 8.1.0 (mac64, Python) logging started Sat Apr  3 20:01:30 2021

Academic license - for non-commercial use only

Gurobi 8.1.0 (mac64, Python) logging started Sat Apr  3 20:05:21 2021

Academic license - for non-commercial use only

Gurobi 8.1.0 (mac64, Python) logging started Sat Apr  3 20:08:54 2021

Academic license - for non-commercial use only

Gurobi 8.1.0 (mac64, Python) logging started Thu Apr 15 13:12:25 2021

Academic license - for non-commercial use only

Gurobi 8.1.0 (mac64, Python) logging started Thu Apr 15 13:16:30 2021

Academic license - for non-commercial use only

Gurobi 8.1.0 (mac64, Python) logging started Thu Apr 15 13:20:27 2021

Academic license - for non-commercial use only

Gurobi 8.1.0 (mac64, Python) logging started Thu Apr 15 13:24:08 2021

Academic license - for non-commercial use only

Gurobi 8.1.0 (mac64, Python) logging started Thu Apr 15 13:27:35 2021

Academic license - for non-commercial use only

Gurobi 8.1.0 (mac64, Python) logging started Thu Apr 15 13:31:12 2021

Academic license - for non-commercial use only

Gurobi 8.1.0 (mac64, Python) logging started Thu Apr 15 13:34:53 2021

Academic license - for non-commercial use only

Gurobi 8.1.0 (mac64, Python) logging started Thu Apr 15 13:38:33 2021

Academic license - for non-commercial use only

Gurobi 8.1.0 (mac64, Python) logging started Thu Apr 15 13:42:51 2021

Academic license - for non-commercial use only

Gurobi 8.1.0 (mac64, Python) logging started Thu Apr 15 13:47:35 2021

Academic license - for non-commercial use only

Gurobi 8.1.0 (mac64, Python) logging started Thu Apr 15 13:52:07 2021

Academic license - for non-commercial use only

Gurobi 8.1.0 (mac64, Python) logging started Thu Apr 15 13:55:45 2021

Academic license - for non-commercial use only

Gurobi 8.1.0 (mac64, Python) logging started Thu Apr 15 13:59:16 2021

Academic license - for non-commercial use only

Gurobi 8.1.0 (mac64, Python) logging started Thu Apr 15 14:03:48 2021

Academic license - for non-commercial use only

Gurobi 8.1.0 (mac64, Python) logging started Thu Apr 15 14:07:23 2021

Academic license - for non-commercial use only

Gurobi 8.1.0 (mac64, Python) logging started Thu Apr 15 14:11:18 2021

Academic license - for non-commercial use only

Gurobi 8.1.0 (mac64, Python) logging started Thu Apr 15 14:15:15 2021

Academic license - for non-commercial use only

Gurobi 8.1.0 (mac64, Python) logging started Thu Apr 15 14:19:00 2021

Academic license - for non-commercial use only

Gurobi 8.1.0 (mac64, Python) logging started Thu Apr 15 14:23:45 2021

Academic license - for non-commercial use only

Gurobi 8.1.0 (mac64, Python) logging started Thu Apr 15 14:27:48 2021

Academic license - for non-commercial use only

Gurobi 8.1.0 (mac64, Python) logging started Thu Apr 15 14:31:18 2021

Academic license - for non-commercial use only

Gurobi 8.1.0 (mac64, Python) logging started Thu Apr 15 14:35:00 2021

Academic license - for non-commercial use only

Gurobi 8.1.0 (mac64, Python) logging started Thu Apr 15 14:38:56 2021

Academic license - for non-commercial use only

Gurobi 8.1.0 (mac64, Python) logging started Thu Apr 15 14:42:35 2021

Academic license - for non-commercial use only

Gurobi 8.1.0 (mac64, Python) logging started Thu Apr 15 14:46:22 2021

Academic license - for non-commercial use only

Gurobi 8.1.0 (mac64, Python) logging started Thu Apr 15 14:50:02 2021

Academic license - for non-commercial use only

Gurobi 8.1.0 (mac64, Python) logging started Thu Apr 15 14:54:19 2021

Academic license - for non-commercial use only

Gurobi 8.1.0 (mac64, Python) logging started Thu Apr 15 14:57:54 2021

Academic license - for non-commercial use only

Gurobi 8.1.0 (mac64, Python) logging started Thu Apr 15 15:01:32 2021

Academic license - for non-commercial use only

Gurobi 8.1.0 (mac64, Python) logging started Thu Apr 15 15:05:05 2021

Academic license - for non-commercial use only

Gurobi 8.1.0 (mac64, Python) logging started Thu Apr 15 15:06:56 2021

Academic license - for non-commercial use only

Gurobi 8.1.0 (mac64, Python) logging started Thu Apr 15 15:09:00 2021

Academic license - for non-commercial use only

Gurobi 8.1.0 (mac64, Python) logging started Thu Apr 15 15:11:30 2021

Academic license - for non-commercial use only

Gurobi 8.1.0 (mac64, Python) logging started Thu Apr 15 15:14:38 2021

Academic license - for non-commercial use only

Gurobi 8.1.0 (mac64, Python) logging started Thu Apr 15 15:18:51 2021

Academic license - for non-commercial use only

Gurobi 8.1.0 (mac64, Python) logging started Thu Apr 15 15:23:31 2021

Academic license - for non-commercial use only

Gurobi 8.1.0 (mac64, Python) logging started Thu Apr 15 15:29:40 2021

Academic license - for non-commercial use only

Gurobi 8.1.0 (mac64, Python) logging started Thu Apr 15 15:31:40 2021

Academic license - for non-commercial use only

Gurobi 8.1.0 (mac64, Python) logging started Thu Apr 15 15:33:37 2021

Academic license - for non-commercial use only

Gurobi 8.1.0 (mac64, Python) logging started Thu Apr 15 15:36:04 2021

Academic license - for non-commercial use only

Gurobi 8.1.0 (mac64, Python) logging started Thu Apr 15 15:38:56 2021

Academic license - for non-commercial use only

Gurobi 8.1.0 (mac64, Python) logging started Thu Apr 15 15:42:48 2021

Academic license - for non-commercial use only

Gurobi 8.1.0 (mac64, Python) logging started Thu Apr 15 15:48:01 2021

Academic license - for non-commercial use only

Gurobi 8.1.0 (mac64, Python) logging started Thu Apr 15 15:54:25 2021

Academic license - for non-commercial use only

Gurobi 8.1.0 (mac64, Python) logging started Thu Apr 15 15:56:15 2021

Academic license - for non-commercial use only

Gurobi 8.1.0 (mac64, Python) logging started Thu Apr 15 15:58:17 2021

Academic license - for non-commercial use only

Gurobi 8.1.0 (mac64, Python) logging started Thu Apr 15 16:00:49 2021

Academic license - for non-commercial use only

Gurobi 8.1.0 (mac64, Python) logging started Thu Apr 15 16:04:07 2021

Academic license - for non-commercial use only

Gurobi 8.1.0 (mac64, Python) logging started Thu Apr 15 16:08:21 2021

Academic license - for non-commercial use only

Gurobi 8.1.0 (mac64, Python) logging started Thu Apr 15 16:13:05 2021

Academic license - for non-commercial use only

Gurobi 8.1.0 (mac64, Python) logging started Thu Apr 15 16:19:21 2021

Academic license - for non-commercial use only

Gurobi 8.1.0 (mac64, Python) logging started Thu Apr 29 12:07:41 2021

Academic license - for non-commercial use only

Gurobi 8.1.0 (mac64, Python) logging started Thu Apr 29 12:08:41 2021

Academic license - for non-commercial use only

Gurobi 8.1.0 (mac64, Python) logging started Thu Apr 29 12:09:39 2021

Academic license - for non-commercial use only

Gurobi 8.1.0 (mac64, Python) logging started Thu Apr 29 12:10:36 2021

Academic license - for non-commercial use only

Gurobi 8.1.0 (mac64, Python) logging started Thu Apr 29 12:11:34 2021

Academic license - for non-commercial use only

Gurobi 8.1.0 (mac64, Python) logging started Thu Apr 29 12:11:48 2021

Academic license - for non-commercial use only

Gurobi 8.1.0 (mac64, Python) logging started Thu Apr 29 12:12:42 2021

Academic license - for non-commercial use only

Gurobi 8.1.0 (mac64, Python) logging started Thu Apr 29 12:13:59 2021

Academic license - for non-commercial use only

Gurobi 8.1.0 (mac64, Python) logging started Thu Apr 29 12:15:46 2021

Academic license - for non-commercial use only

Gurobi 8.1.0 (mac64, Python) logging started Thu Apr 29 12:16:43 2021

Academic license - for non-commercial use only

Gurobi 8.1.0 (mac64, Python) logging started Thu Apr 29 12:17:45 2021

Academic license - for non-commercial use only

Gurobi 8.1.0 (mac64, Python) logging started Thu Apr 29 12:19:12 2021

Academic license - for non-commercial use only

Gurobi 8.1.0 (mac64, Python) logging started Thu Apr 29 12:35:53 2021

Academic license - for non-commercial use only

Gurobi 8.1.0 (mac64, Python) logging started Thu Apr 29 12:46:30 2021

Academic license - for non-commercial use only

Gurobi 8.1.0 (mac64, Python) logging started Thu Apr 29 13:20:45 2021

Academic license - for non-commercial use only

Gurobi 8.1.0 (mac64, Python) logging started Thu Apr 29 13:32:42 2021

Academic license - for non-commercial use only

Gurobi 8.1.0 (mac64, Python) logging started Thu Apr 29 13:44:15 2021

Academic license - for non-commercial use only

Gurobi 8.1.0 (mac64, Python) logging started Sat May  1 00:15:35 2021

Academic license - for non-commercial use only

Gurobi 8.1.0 (mac64, Python) logging started Sat May  1 00:27:29 2021

Academic license - for non-commercial use only

Gurobi 8.1.0 (mac64, Python) logging started Sat May  1 00:38:48 2021

Academic license - for non-commercial use only

Gurobi 8.1.0 (mac64, Python) logging started Sat May  1 00:49:53 2021

Academic license - for non-commercial use only

Gurobi 8.1.0 (mac64, Python) logging started Sat May  1 01:01:27 2021

Academic license - for non-commercial use only

Gurobi 8.1.0 (mac64, Python) logging started Sat May  1 01:12:17 2021

Academic license - for non-commercial use only

Gurobi 8.1.0 (mac64, Python) logging started Sat May  1 01:20:03 2021

Academic license - for non-commercial use only

Gurobi 8.1.0 (mac64, Python) logging started Sat May  1 01:28:27 2021

Academic license - for non-commercial use only

Gurobi 8.1.0 (mac64, Python) logging started Sat May  1 01:38:38 2021

Academic license - for non-commercial use only

Gurobi 8.1.0 (mac64, Python) logging started Sat May  1 01:50:20 2021

Academic license - for non-commercial use only

Gurobi 8.1.0 (mac64, Python) logging started Sat May  1 01:57:51 2021

Academic license - for non-commercial use only

Gurobi 8.1.0 (mac64, Python) logging started Sat May  1 02:08:37 2021

Academic license - for non-commercial use only

Gurobi 8.1.0 (mac64, Python) logging started Sat May  1 10:11:22 2021

Academic license - for non-commercial use only

Gurobi 8.1.0 (mac64, Python) logging started Sat May  1 10:22:05 2021

Academic license - for non-commercial use only

Gurobi 8.1.0 (mac64, Python) logging started Sat May  1 10:32:13 2021

Academic license - for non-commercial use only

Gurobi 8.1.0 (mac64, Python) logging started Sat May  1 10:43:50 2021

Academic license - for non-commercial use only

Gurobi 8.1.0 (mac64, Python) logging started Sat May  1 10:54:47 2021

Academic license - for non-commercial use only

Gurobi 8.1.0 (mac64, Python) logging started Sat May  1 11:04:42 2021

Academic license - for non-commercial use only

Gurobi 8.1.0 (mac64, Python) logging started Sat May  1 11:09:21 2021

Academic license - for non-commercial use only

Gurobi 8.1.0 (mac64, Python) logging started Sat May  1 11:14:06 2021

Academic license - for non-commercial use only

Gurobi 8.1.0 (mac64, Python) logging started Sat May  1 11:23:43 2021

Academic license - for non-commercial use only

Gurobi 8.1.0 (mac64, Python) logging started Sat May  1 11:28:46 2021

Academic license - for non-commercial use only

Gurobi 8.1.0 (mac64, Python) logging started Sat May  1 11:38:26 2021

Academic license - for non-commercial use only

Gurobi 8.1.0 (mac64, Python) logging started Sat May  1 11:45:31 2021

Academic license - for non-commercial use only

Gurobi 8.1.0 (mac64, Python) logging started Sat May  1 11:56:47 2021

Academic license - for non-commercial use only

Gurobi 8.1.0 (mac64, Python) logging started Sat May  1 12:07:41 2021

Academic license - for non-commercial use only

Gurobi 8.1.0 (mac64, Python) logging started Sat May  1 12:13:07 2021

Academic license - for non-commercial use only

Gurobi 8.1.0 (mac64, Python) logging started Sat May  1 12:18:02 2021

Academic license - for non-commercial use only

Gurobi 8.1.0 (mac64, Python) logging started Sat May  1 12:26:27 2021

Academic license - for non-commercial use only

Gurobi 8.1.0 (mac64, Python) logging started Sat May  1 12:36:42 2021

Academic license - for non-commercial use only

Gurobi 8.1.0 (mac64, Python) logging started Sat May  1 12:46:37 2021

Academic license - for non-commercial use only

Gurobi 8.1.0 (mac64, Python) logging started Sat May  1 12:57:57 2021

Academic license - for non-commercial use only

Gurobi 8.1.0 (mac64, Python) logging started Sat May  1 13:09:57 2021

Academic license - for non-commercial use only

Gurobi 8.1.0 (mac64, Python) logging started Sat May  1 13:19:19 2021

Academic license - for non-commercial use only

Gurobi 8.1.0 (mac64, Python) logging started Sat May  1 13:28:45 2021

Academic license - for non-commercial use only

Gurobi 8.1.0 (mac64, Python) logging started Sat May  1 13:39:04 2021

Academic license - for non-commercial use only

Gurobi 8.1.0 (mac64, Python) logging started Sat May  1 13:49:05 2021

Academic license - for non-commercial use only

Gurobi 8.1.0 (mac64, Python) logging started Sat May  1 13:59:22 2021

Academic license - for non-commercial use only

Gurobi 8.1.0 (mac64, Python) logging started Sat May  1 14:08:38 2021

Academic license - for non-commercial use only

Gurobi 8.1.0 (mac64, Python) logging started Sat May  1 14:18:10 2021

Academic license - for non-commercial use only

Gurobi 8.1.0 (mac64, Python) logging started Sat May  1 14:30:12 2021

Academic license - for non-commercial use only

Gurobi 8.1.0 (mac64, Python) logging started Sat May  1 14:40:10 2021

Academic license - for non-commercial use only

Gurobi 8.1.0 (mac64, Python) logging started Sat May  1 14:50:38 2021

Academic license - for non-commercial use only

Gurobi 8.1.0 (mac64, Python) logging started Sat May  1 14:58:47 2021

Academic license - for non-commercial use only

Gurobi 8.1.0 (mac64, Python) logging started Sat May  1 20:13:55 2021

Academic license - for non-commercial use only

Gurobi 8.1.0 (mac64, Python) logging started Sat May  1 20:22:02 2021

Academic license - for non-commercial use only

Gurobi 8.1.0 (mac64, Python) logging started Sat May  1 20:31:56 2021

Academic license - for non-commercial use only

Gurobi 8.1.0 (mac64, Python) logging started Sat May  1 20:43:20 2021

Academic license - for non-commercial use only

Gurobi 8.1.0 (mac64, Python) logging started Sat May  1 20:56:17 2021

Academic license - for non-commercial use only

Gurobi 8.1.0 (mac64, Python) logging started Sat May  1 21:10:01 2021

Academic license - for non-commercial use only

Gurobi 8.1.0 (mac64, Python) logging started Sat May  1 21:20:56 2021

Academic license - for non-commercial use only

Gurobi 8.1.0 (mac64, Python) logging started Sat May  1 21:28:41 2021

Academic license - for non-commercial use only

Gurobi 8.1.0 (mac64, Python) logging started Sat May  1 21:38:49 2021

Academic license - for non-commercial use only

Gurobi 8.1.0 (mac64, Python) logging started Sat May  1 21:50:57 2021

Academic license - for non-commercial use only

Gurobi 8.1.0 (mac64, Python) logging started Sat May  1 22:02:32 2021

Academic license - for non-commercial use only

Gurobi 8.1.0 (mac64, Python) logging started Sat May  1 22:17:43 2021

Academic license - for non-commercial use only

Gurobi 8.1.0 (mac64, Python) logging started Sat May  1 22:30:14 2021

Academic license - for non-commercial use only

Gurobi 8.1.0 (mac64, Python) logging started Sat May  1 22:38:47 2021

Academic license - for non-commercial use only

Gurobi 8.1.0 (mac64, Python) logging started Sat May  1 22:48:15 2021

Academic license - for non-commercial use only

Gurobi 8.1.0 (mac64, Python) logging started Sat May  1 23:00:12 2021

Academic license - for non-commercial use only

Gurobi 8.1.0 (mac64, Python) logging started Sat May  1 23:13:55 2021

Academic license - for non-commercial use only

Gurobi 8.1.0 (mac64, Python) logging started Sat May  1 23:23:04 2021

Academic license - for non-commercial use only

Gurobi 8.1.0 (mac64, Python) logging started Tue Jun  1 09:27:03 2021

Academic license - for non-commercial use only

Gurobi 8.1.0 (mac64, Python) logging started Tue Jun  1 09:31:48 2021

Academic license - for non-commercial use only

Gurobi 8.1.0 (mac64, Python) logging started Tue Jun  1 09:36:14 2021

Academic license - for non-commercial use only
